
Starting CP-SAT solver v9.15.6755
Parameters: random_seed: 2026074052 max_time_in_seconds: 13672.015835680999 log_search_progress: true cp_model_presolve: true linearization_level: 2 num_search_workers: 4 cp_model_probing_level: 2 symmetry_level: 2

Initial satisfaction model '': (model_fingerprint: 0x316fdc4f291d945f)
#Variables: 724 (598 primary variables)
  - 724 Booleans in [0,1]
#kBoolAnd: 110 (#enforced: 110) (#literals: 330)
#kBoolOr: 110 (#enforced: 110) (#literals: 220)
#kExactlyOne: 87 (#literals: 261)
#kLinear1: 42 (#enforced: 6)
#kLinear2: 336 (#enforced: 336) (#complex_domain: 110)
#kLinear3: 1'600 (#enforced: 6)
#kLinearN: 1'132 (#enforced: 243) (#terms: 9'111)

Starting presolve at 0.00s
  6.74e-04s  0.00e+00d  [DetectDominanceRelations] 
  8.80e-03s  0.00e+00d  [PresolveToFixPoint] #num_loops=3 #num_dual_strengthening=1 
  3.68e-05s  0.00e+00d  [ExtractEncodingFromLinear] #potential_supersets=88 
  3.16e-04s  0.00e+00d  [DetectDuplicateColumns] 
  1.23e-04s  0.00e+00d  [DetectDuplicateConstraints] #duplicates=14 
[Symmetry] Graph for symmetry has 4'813 nodes and 15'274 arcs.
[Symmetry] Symmetry computation done. time: 0.00132371 dtime: 0.00178994
[SAT presolve] num removable Booleans: 220 / 606
[SAT presolve] num trivial clauses: 0
[SAT presolve] [0s] clauses:2'659 literals:7'272 vars:500 one_side_vars:60 simple_definition:1 singleton_clauses:0
[SAT presolve] [0.000215102s] clauses:2'658 literals:7'265 vars:500 one_side_vars:60 simple_definition:1 singleton_clauses:0
[SAT presolve] [0.000543206s] clauses:2'414 literals:6'912 vars:387 one_side_vars:60 simple_definition:6 singleton_clauses:0
  1.36e-04s  0.00e+00d  [DetectDuplicateConstraintsWithDifferentEnforcements] 
  5.96e-03s  3.20e-03d  [Probe] #probed=1'257 #fixed_bools=9 #equiv=8 #new_binary_clauses=705 
  6.44e-04s  5.47e-04d  [MaxClique] Merged 632 constraints with 1'413 literals into 561 constraints with 1'295 literals
  8.49e-04s  0.00e+00d  [DetectDominanceRelations] 
  3.18e-03s  0.00e+00d  [PresolveToFixPoint] #num_loops=1 #num_dual_strengthening=1 
  1.20e-03s  0.00e+00d  [ProcessAtMostOneAndLinear] 
  1.17e-04s  0.00e+00d  [DetectDuplicateConstraints] #duplicates=4 
  9.83e-05s  0.00e+00d  [DetectDuplicateConstraintsWithDifferentEnforcements] 
  1.20e-03s  6.50e-05d  [DetectDominatedLinearConstraints] #relevant_constraints=819 #num_inclusions=347 #num_redundant=6 
  1.19e-04s  0.00e+00d  [DetectDifferentVariables] 
  8.20e-04s  8.89e-05d  [ProcessSetPPC] #relevant_constraints=3'156 #num_inclusions=278 
  3.19e-04s  3.52e-05d  [TransformClausesToExactlyOne] #num_amos=583 #num_clauses=1'782 #num_transformed=1 #num_checked=1'782 
  4.43e-05s  0.00e+00d  [DetectEncodedComplexDomains] 
  3.78e-05s  0.00e+00d  [FindAlmostIdenticalLinearConstraints] 
  9.02e-04s  1.38e-03d  [FindBigAtMostOneAndLinearOverlap] 
  1.51e-03s  1.23e-03d  [FindBigVerticalLinearOverlap] #blocks=1 #saved_nz=31 
  3.95e-04s  6.63e-04d  [FindBigHorizontalLinearOverlap] #linears=445 
  3.68e-04s  2.79e-05d  [MergeClauses] #num_collisions=7 #num_merges=7 #num_saved_literals=20 
  8.55e-04s  0.00e+00d  [DetectDominanceRelations] 
  3.13e-03s  0.00e+00d  [PresolveToFixPoint] #num_loops=2 #num_dual_strengthening=1 
  8.24e-04s  0.00e+00d  [DetectDominanceRelations] 
  3.03e-03s  0.00e+00d  [PresolveToFixPoint] #num_loops=1 #num_dual_strengthening=1 
  1.82e-04s  0.00e+00d  [DetectDuplicateColumns] 
  9.76e-05s  0.00e+00d  [DetectDuplicateConstraints] 
[Symmetry] Graph for symmetry has 4'472 nodes and 13'940 arcs.
[Symmetry] Symmetry computation done. time: 0.00103382 dtime: 0.00140862
[SAT presolve] num removable Booleans: 105 / 476
[SAT presolve] num trivial clauses: 0
[SAT presolve] [0s] clauses:2'313 literals:6'641 vars:450 one_side_vars:131 simple_definition:26 singleton_clauses:0
[SAT presolve] [0.000228278s] clauses:2'313 literals:6'497 vars:450 one_side_vars:140 simple_definition:82 singleton_clauses:0
[SAT presolve] [0.000406902s] clauses:2'098 literals:6'027 vars:439 one_side_vars:182 simple_definition:51 singleton_clauses:0
  1.86e-04s  0.00e+00d  [DetectDuplicateConstraintsWithDifferentEnforcements] #without_enforcements=5 
  5.80e-03s  1.86e-03d  [Probe] #probed=1'248 #new_binary_clauses=495 
  4.16e-04s  2.68e-04d  [MaxClique] Merged 462 constraints with 1'030 literals into 451 constraints with 1'028 literals
  8.33e-04s  0.00e+00d  [DetectDominanceRelations] 
  3.05e-03s  0.00e+00d  [PresolveToFixPoint] #num_loops=1 #num_dual_strengthening=1 
  1.12e-03s  0.00e+00d  [ProcessAtMostOneAndLinear] 
  1.19e-04s  0.00e+00d  [DetectDuplicateConstraints] 
  1.01e-04s  0.00e+00d  [DetectDuplicateConstraintsWithDifferentEnforcements] 
  3.19e-03s  9.33e-05d  [DetectDominatedLinearConstraints] #relevant_constraints=815 #num_inclusions=478 
  1.50e-04s  0.00e+00d  [DetectDifferentVariables] 
  7.53e-04s  7.79e-05d  [ProcessSetPPC] #relevant_constraints=2'990 #num_inclusions=118 
  2.92e-04s  3.21e-05d  [TransformClausesToExactlyOne] #num_amos=452 #num_clauses=1'678 #num_checked=1'678 
  4.82e-05s  0.00e+00d  [DetectEncodedComplexDomains] 
  5.76e-05s  0.00e+00d  [FindAlmostIdenticalLinearConstraints] 
  8.71e-04s  1.31e-03d  [FindBigAtMostOneAndLinearOverlap] 
  1.45e-03s  1.14e-03d  [FindBigVerticalLinearOverlap] #blocks=6 #saved_nz=269 
  3.64e-04s  5.92e-04d  [FindBigHorizontalLinearOverlap] #linears=448 
  3.54e-04s  2.58e-05d  [MergeClauses] #num_collisions=68 #num_merges=68 #num_saved_literals=180 
  8.57e-04s  0.00e+00d  [DetectDominanceRelations] 
  3.14e-03s  0.00e+00d  [PresolveToFixPoint] #num_loops=2 #num_dual_strengthening=1 
  8.17e-04s  0.00e+00d  [DetectDominanceRelations] 
  2.96e-03s  0.00e+00d  [PresolveToFixPoint] #num_loops=1 #num_dual_strengthening=1 
  1.90e-04s  0.00e+00d  [DetectDuplicateColumns] 
  1.03e-04s  0.00e+00d  [DetectDuplicateConstraints] 
[Symmetry] Graph for symmetry has 4'218 nodes and 12'731 arcs.
[Symmetry] Symmetry computation done. time: 0.00100112 dtime: 0.00126582
[SAT presolve] num removable Booleans: 94 / 465
[SAT presolve] num trivial clauses: 0
[SAT presolve] [0s] clauses:2'074 literals:5'961 vars:439 one_side_vars:183 simple_definition:51 singleton_clauses:0
[SAT presolve] [0.000196668s] clauses:2'074 literals:5'961 vars:439 one_side_vars:183 simple_definition:51 singleton_clauses:0
[SAT presolve] [0.000258785s] clauses:2'074 literals:5'961 vars:439 one_side_vars:183 simple_definition:51 singleton_clauses:0
  1.55e-04s  0.00e+00d  [DetectDuplicateConstraintsWithDifferentEnforcements] 
  5.79e-03s  1.83e-03d  [Probe] #probed=1'248 #new_binary_clauses=495 
  4.07e-04s  2.59e-04d  [MaxClique] 
  8.46e-04s  0.00e+00d  [DetectDominanceRelations] 
  3.05e-03s  0.00e+00d  [PresolveToFixPoint] #num_loops=1 #num_dual_strengthening=1 
  1.11e-03s  0.00e+00d  [ProcessAtMostOneAndLinear] 
  1.69e-04s  0.00e+00d  [DetectDuplicateConstraints] 
  1.30e-04s  0.00e+00d  [DetectDuplicateConstraintsWithDifferentEnforcements] 
  1.19e-03s  5.70e-05d  [DetectDominatedLinearConstraints] #relevant_constraints=821 #num_inclusions=308 
  1.28e-04s  0.00e+00d  [DetectDifferentVariables] 
  7.28e-04s  6.87e-05d  [ProcessSetPPC] #relevant_constraints=2'990 #num_inclusions=71 
  3.10e-04s  3.21e-05d  [TransformClausesToExactlyOne] #num_amos=448 #num_clauses=1'678 #num_checked=1'678 
  6.52e-05s  0.00e+00d  [DetectEncodedComplexDomains] 
  6.15e-05s  0.00e+00d  [FindAlmostIdenticalLinearConstraints] 
  7.76e-04s  9.98e-04d  [FindBigAtMostOneAndLinearOverlap] 
  1.22e-03s  8.94e-04d  [FindBigVerticalLinearOverlap] 
  3.75e-04s  5.92e-04d  [FindBigHorizontalLinearOverlap] #linears=448 
  3.53e-04s  2.58e-05d  [MergeClauses] #num_collisions=68 #num_merges=68 #num_saved_literals=180 
  8.66e-04s  0.00e+00d  [DetectDominanceRelations] 
  3.03e-03s  0.00e+00d  [PresolveToFixPoint] #num_loops=1 #num_dual_strengthening=1 
  3.01e-05s  0.00e+00d  [MergeNoOverlap] 
  3.15e-05s  0.00e+00d  [MergeNoOverlap2D] 

Presolve summary:
  - 33 affine relations were detected.
  - rule 'TODO dual: only one blocking constraint?' was applied 764 times.
  - rule 'TODO linear inclusion: superset is equality' was applied 251 times.
  - rule 'affine: new relation' was applied 33 times.
  - rule 'at_most_one: removed literals' was applied 49 times.
  - rule 'at_most_one: size one' was applied 48 times.
  - rule 'at_most_one: transformed into max clique' was applied 2 times.
  - rule 'bool_or: implications' was applied 83 times.
  - rule 'bool_or: only one literal' was applied 12 times.
  - rule 'bool_or: removed enforcement literal' was applied 557 times.
  - rule 'clauses: transformed into exactly one' was applied 1 time.
  - rule 'deductions: 677 stored' was applied 1 time.
  - rule 'duplicate: merged rhs of linear constraint' was applied 17 times.
  - rule 'duplicate: removed constraint' was applied 18 times.
  - rule 'duplicate: removed enforced constraint' was applied 5 times.
  - rule 'enforcement: false literal' was applied 47 times.
  - rule 'enforcement: true literal' was applied 16 times.
  - rule 'exactly_one: removed literals' was applied 27 times.
  - rule 'exactly_one: satisfied' was applied 13 times.
  - rule 'exactly_one: singleton' was applied 2 times.
  - rule 'exactly_one: size two' was applied 25 times.
  - rule 'exactly_one: x and not(x)' was applied 5 times.
  - rule 'incompatible linear: add implication' was applied 114 times.
  - rule 'linear + amo: empty after processing' was applied 5 times.
  - rule 'linear + amo: extracted enforcement literal' was applied 48 times.
  - rule 'linear + amo: trivial linear constraint' was applied 1 time.
  - rule 'linear inclusion: redundant containing constraint' was applied 2 times.
  - rule 'linear inclusion: redundant included constraint' was applied 3 times.
  - rule 'linear inclusion: sparsify superset' was applied 1 time.
  - rule 'linear matrix: common vertical rectangle' was applied 7 times.
  - rule 'linear1: x in domain' was applied 36 times.
  - rule 'linear2: convert ax + by != cte to clauses' was applied 256 times.
  - rule 'linear2: convert implied ax + by == cte to clauses' was applied 114 times.
  - rule 'linear2: implied ax + by = cte has only one solution' was applied 8 times.
  - rule 'linear: always true' was applied 417 times.
  - rule 'linear: coefficient strengthening by increasing it' was applied 2 times.
  - rule 'linear: empty' was applied 1 time.
  - rule 'linear: extracted at most one (max)' was applied 1 time.
  - rule 'linear: fixed or dup variables' was applied 879 times.
  - rule 'linear: negative clause' was applied 1'288 times.
  - rule 'linear: negative reified and' was applied 68 times.
  - rule 'linear: never in domain' was applied 5 times.
  - rule 'linear: positive at most one' was applied 40 times.
  - rule 'linear: positive equal one' was applied 1 time.
  - rule 'linear: reduced variable domains' was applied 9 times.
  - rule 'linear: remapped using affine relations' was applied 22 times.
  - rule 'presolve: 100 unused variables removed.' was applied 1 time.
  - rule 'presolve: iteration' was applied 3 times.
  - rule 'probing: bool_or reduced to implication' was applied 45 times.
  - rule 'probing: simplified clauses' was applied 19 times.
  - rule 'setppc: bool_or in at_most_one' was applied 8 times.
  - rule 'setppc: exactly_one included in linear' was applied 1 time.
  - rule 'setppc: reduced linear coefficients' was applied 1 time.
  - rule 'setppc: removed dominated constraints' was applied 79 times.

Presolved satisfaction model '': (model_fingerprint: 0x90a6ffeeab273a2a)
#Variables: 472 (401 primary variables)
  - 465 Booleans in [0,1]
  - 6 in [0,2]
  - 1 in [0,3]
#kAtMostOne: 52 (#literals: 211)
#kBoolAnd: 245 (#enforced: 245) (#literals: 641)
#kBoolAndClauses: 68 (#enforced: 68 #multi: 68) (#literals: 316)
#kBoolOr: 1'542 (#literals: 4'673)
#kExactlyOne: 49 (#literals: 198)
#kLinear3: 6 (#enforced: 4)
#kLinearN: 815 (#enforced: 114) (#terms: 5'450)
[Symmetry] Graph for symmetry has 3'959 nodes and 12'731 arcs.
[Symmetry] Symmetry computation done. time: 0.000922326 dtime: 0.00125028

Preloading model.
#Model   0.10s var:472/472 constraints:2777/2777

Starting search at 0.10s with 4 workers.
3 full problem subsolvers: [default_lp, max_lp, no_lp]
1 first solution subsolver: [fj]
2 interleaved subsolvers: [feasibility_pump, rins/rens]
2 helper subsolvers: [neighborhood_helper, synchronization_agent]

#Model  21.21s var:471/472 constraints:2760/2777
#Model  78.72s var:470/472 constraints:2758/2777
#Model 2230.56s var:469/472 constraints:2758/2777
#Model 2847.66s var:468/472 constraints:2736/2777
#Model 2969.22s var:467/472 constraints:2718/2777
#Model 2981.05s var:465/472 constraints:2697/2777
#Model 2990.14s var:464/472 constraints:2677/2777
#Model 2991.81s var:432/472 constraints:2218/2777 compo:431,1
#Model 2992.38s var:431/472 constraints:2200/2777 compo:430,1
#Done  2992.65s no_lp

Task timing                   n [     min,      max]      avg      dev     time         n [     min,      max]      avg      dev    dtime
        'default_lp':         1 [  49.88m,   49.88m]   49.88m   0.00ns   49.88m         2 [  2.05ms,   49.33m]   24.66m   24.66m   49.33m
  'feasibility_pump':     14835 [870.06us, 122.69ms]   1.60ms   1.04ms   23.73s     14834 [276.10us, 105.29ms] 285.67us 862.15us    4.24s
                'fj':     10862 [105.98ms, 215.30ms] 136.58ms   9.11ms   24.73m     10862 [ 98.71ms, 100.14ms] 100.02ms  19.32us   18.11m
            'max_lp':         1 [  49.88m,   49.88m]   49.88m   0.00ns   49.88m         2 [110.29ms,    1.09h]   32.56m   32.55m    1.09h
             'no_lp':         1 [  49.88m,   49.88m]   49.88m   0.00ns   49.88m         2 [  1.67ms,    1.64h]   49.32m   49.32m    1.64h
         'rins/rens':     12528 [ 19.66ms, 242.62ms] 118.41ms  44.10ms   24.72m     12528 [272.23us, 100.32ms]  68.26ms  37.02ms   14.25m

Search stats     Bools   Conflicts    Branches  Restarts  BacktrackToRoot   Backtrack     BoolPropag  IntegerPropag
  'default_lp':    465     250'522   8'999'255     1'327        1'343'820   1'907'585     87'463'538    108'496'181
      'max_lp':    465      95'824  10'267'746       404        1'532'935   1'965'049     95'625'232    127'309'306
       'no_lp':    465  23'294'780  30'971'205    75'295          583'860  23'686'915  1'998'216'764    514'143'445

SAT formula      Fixed  Equiv  Total  VarLeft  BinaryClauses  PermanentClauses  TemporaryClauses
  'default_lp':      7      5    465      453          2'412            36'920             2'877
      'max_lp':      4      3    465      458          2'336            47'531             6'282
       'no_lp':    261      5    465      199          2'476            47'343             4'765

SAT stats        ClassicMinim   LitRemoved  LitRemovedBinary   LitLearned  LitForgotten   Subsumed
  'default_lp':       217'649    2'658'822         1'336'482    6'645'063     4'081'636     97'136
      'max_lp':        82'049    1'090'575           513'879    2'202'772     1'103'479     38'016
       'no_lp':    21'147'547  390'090'281       100'502'817  539'178'162   419'234'949  6'791'932

Vivification       Clauses  Decisions  LitTrue  Subsumed  LitRemoved  DecisionReused  Conflicts
  'default_lp':  1'359'020  8'398'725        5    19'494     219'015         386'277      2'590
      'max_lp':  1'525'387  9'809'676        0    17'201     193'632         389'933      1'977
       'no_lp':    425'092  3'668'717        1    26'271     352'114         109'334      1'464

Clause deletion    at_true  l_and_not(l)  to_binary  sub_conflict  sub_extra  sub_decisions  sub_eager  sub_vivify  sub_probing  sub_inpro  blocked  eliminated   forgotten    promoted   conflicts
    'default_lp':    7'724           915         13        95'240        665          3'959      1'896      19'494        8'131     27'102        0           0     120'648     478'383     250'522
        'max_lp':    1'730             0          4        37'544        269          1'105        472      17'201        3'086     14'043        0           0      38'004     169'950      95'824
         'no_lp':   90'851         2'127        210     6'672'925     39'807        310'997    119'007      26'271       20'348    169'607        0           0  15'793'427  52'462'907  23'294'780

Lp stats         Component  Iterations  AddedCuts  OPTIMAL  DUAL_F.  DUAL_U.
  'default_lp':          1  36'351'215     88'930  337'772        3  198'965
      'max_lp':          1  21'390'865     45'424   28'493   63'480   41'010

Lp dimension        Final dimension of first component
  'default_lp':    270 rows, 334 columns, 3687 entries
      'max_lp':  1372 rows, 472 columns, 12737 entries

Lp debug         CutPropag  CutEqPropag   Adjust  Overflow        Bad  BadScaling
  'default_lp':          0          514  198'962         0  2'894'015           0
      'max_lp':          0          315   41'005         0  1'307'210           0

Lp pool          Constraints  Updates  Simplif  Merged  Shortened  Split  Strengthened       Cuts/Call
  'default_lp':       10'713   21'279    9'475       0      9'861    745             0  88'930/161'861
      'max_lp':       12'500   11'857    3'684       0      3'735    373         1'468   45'424/94'124

Lp Cut            default_lp  max_lp
          CG_FF:       1'169     118
           CG_K:         615      32
          CG_KL:         519       6
           CG_R:       1'300      90
          CG_RB:          79      26
         CG_RBP:          16       2
         Clique:           -     104
             IB:          57      15
       MIR_1_FF:         552     554
        MIR_1_K:          98      12
       MIR_1_KL:         351      21
        MIR_1_R:         534     271
       MIR_1_RB:          13       3
      MIR_1_RBP:           8       2
      MIR_1_RLT:           -   5'929
       MIR_2_FF:         523     544
        MIR_2_K:          97      88
       MIR_2_KL:         228      58
        MIR_2_R:       1'070     510
       MIR_2_RB:          40      22
      MIR_2_RBP:          22       8
       MIR_3_FF:         275     165
        MIR_3_K:          30      17
       MIR_3_KL:          97      13
        MIR_3_R:         647     203
       MIR_3_RB:          31      10
      MIR_3_RBP:          16       5
       MIR_4_FF:          84      46
        MIR_4_K:          18       5
       MIR_4_KL:          28       3
        MIR_4_R:         482     140
       MIR_4_RB:          27      14
      MIR_4_RBP:          10       9
       MIR_5_FF:          27      23
        MIR_5_K:           4       1
       MIR_5_KL:           6       1
        MIR_5_R:         344     137
       MIR_5_RB:          24      13
      MIR_5_RBP:          12       6
       MIR_6_FF:          14       6
        MIR_6_K:           3       2
       MIR_6_KL:           2       -
        MIR_6_R:         265     128
       MIR_6_RB:          21       9
      MIR_6_RBP:          12       7
   ZERO_HALF_FF:         372     486
    ZERO_HALF_K:          54       7
   ZERO_HALF_KL:          92      12
    ZERO_HALF_R:      78'421  35'485
   ZERO_HALF_RB:           6       1
  ZERO_HALF_RBP:         215      55

LNS stats       Improv/Calls  Closed  Difficulty  TimeLimit
  'rins/rens':   12528/12528     50%    8.18e-01       0.10

LS stats                                    Batches  Restarts/Perturbs    LinMoves    GenMoves  CompoundMoves  Bactracks  WeightUpdates  ScoreComputed
                             'fj_restart':      530                135  12'801'818           0              0          0     11'640'732     30'693'574
                    'fj_restart_compound':      495                161           0   4'915'191        356'156  2'279'173         10'404     89'486'282
                'fj_restart_compound_obj':      873                161           0   8'854'678        438'805  4'207'615         22'708    159'136'561
            'fj_restart_compound_perturb':      568                150           0   5'738'882        354'804  2'691'729         13'251    103'124'811
        'fj_restart_compound_perturb_obj':      521                120           0   5'265'975        282'988  2'491'272         13'449     94'924'811
                       'fj_restart_decay':      796                139  22'036'852           0              0          0        983'458     21'486'441
              'fj_restart_decay_compound':    1'147                167           0  13'202'577      2'135'852  5'532'896         13'714    208'602'006
          'fj_restart_decay_compound_obj':      711                151           0   7'931'137      1'291'073  3'319'648          8'510    129'103'795
      'fj_restart_decay_compound_perturb':      519                137           0   5'726'364        941'140  2'392'261          6'300     94'155'743
  'fj_restart_decay_compound_perturb_obj':      653                148           0   7'314'220      1'188'365  3'062'559          7'846    118'538'723
                   'fj_restart_decay_obj':      837                138  23'170'462           0              0          0      1'034'160     22'588'005
               'fj_restart_decay_perturb':      543                138  15'023'377           0              0          0        671'484     14'657'449
           'fj_restart_decay_perturb_obj':      714                131  19'766'048           0              0          0        881'919     19'273'284
                         'fj_restart_obj':      413                132  10'269'593           0              0          0      9'136'390     23'346'649
                     'fj_restart_perturb':      775                139  18'806'529           0              0          0     17'978'448     46'898'785
                 'fj_restart_perturb_obj':      767                153  18'475'547           0              0          0     18'094'563     44'095'946

Solution repositories    Added  Queried  Synchro
    'alternative_path':      0        0        0
      'best_solutions':      0        0        0
   'fj solution hints':  2'292        0    2'292
        'lp solutions':    921   12'528      919
                'pump':      0        0

Improving bounds shared    Num  Sym
            'default_lp':    5    0
                 'no_lp':  170    0

Clauses shared    #Exported  #Imported  #BinaryRead  #BinaryTotal
   'default_lp':      5'212     74'406          629           846
       'max_lp':      3'372     70'077          496           846
        'no_lp':     75'215      8'823          846           846

LRAT_status: NA
CpSolverResponse summary:
status: INFEASIBLE
objective: NA
best_bound: NA
integers: 347
booleans: 465
conflicts: 23294780
branches: 30971205
propagations: 1998216764
integer_propagations: 514143445
restarts: 75295
lp_iterations: 0
walltime: 2992.68
usertime: 2992.68
deterministic_time: 14730.3
gap_integral: 0

{
  "board_size": 22,
  "parity_proved": 0,
  "target": 34,
  "child_id": 1852,
  "child_count": 2640,
  "partition": "unknown_pair_x_diag_plus_twos_x_diag_minus_twos",
  "build_seconds": 0.08191752433776855,
  "workers": 4,
  "requested_seed": 2026074052,
  "effective_seed": 2026074052,
  "main_diagonal_pair": [
    4,
    13
  ],
  "pair_index": 80,
  "diag_plus_twos": 16,
  "diag_minus_twos": 16,
  "pair_excess": 22,
  "residual_certificate_slack": 90,
  "analytic_minimum_line_defect": 24,
  "analytic_defect_details": {
    "row_costs": {
      "12": 6,
      "13": 3,
      "14": 0,
      "15": 0,
      "16": 0,
      "17": 0
    },
    "column_costs": {
      "12": 6,
      "13": 3,
      "14": 0,
      "15": 0,
      "16": 0,
      "17": 0
    },
    "plus_cost": 24,
    "minus_cost": 0,
    "row_column_minimum": 0
  },
  "maximal_line_constraints": 2455,
  "analytic_infeasible": false,
  "allowed_points": 242,
  "status": "INFEASIBLE",
  "proof_method": "cp_sat_all_lines_with_certificate_profile_cuts",
  "elapsed_seconds": 2992.680239677429,
  "branches": 30971205,
  "conflicts": 23294780
}
